     Program PWSCF v.6.4.1 starts on 14Dec2020 at  3: 7:23

     R & G space division:  proc/nbgrp/npool/nimage =       2
     Waiting for input...
     Reading input from standard input

     Current dimensions of program PWSCF are:
     Max number of different atomic species (ntypx) = 10
     Max number of k-points (npk) =  40000
     Max angular momentum in pseudopotentials (lmaxx) =  3

     Subspace diagonalization in iterative solution of the eigenvalue problem:
     a serial algorithm will be used

     bravais-lattice index     =            0
     lattice parameter (alat)  =       8.8817  a.u.
     unit-cell volume          =     700.6323 (a.u.)^3
     number of atoms/cell      =           10
     number of atomic types    =            4
     number of electrons       =        32.00
     number of Kohn-Sham states=           20
     kinetic-energy cutoff     =      25.0000  Ry
     charge density cutoff     =     200.0000  Ry
     convergence threshold     =      1.0E-07
     mixing beta               =       0.5000
     number of iterations used =            8  plain     mixing
     Exchange-correlation      =  SLA  PW   PBX  PBC ( 1  4  3  4 0 0)
     nstep                     =           50

     celldm(1)=   8.881713  celldm(2)=   0.000000  celldm(3)=   0.000000
     celldm(4)=   0.000000  celldm(5)=   0.000000  celldm(6)=   0.000000

     crystal axes: (cart. coord. in units of alat)
               a(1) = (   1.000000   0.000000   0.000000 )
               a(2) = (   0.000000   1.000000   0.000000 )
               a(3) = (   0.000000   0.000000   1.000000 )

     reciprocal axes: (cart. coord. in units 2 pi/alat)
               b(1) = (  1.000000  0.000000  0.000000 )
               b(2) = (  0.000000  1.000000  0.000000 )
               b(3) = (  0.000000  0.000000  1.000000 )

     PseudoPot. # 1 for B  read from file:
     /home/modeler/qe_pseudo/b_pbe_v1.4.uspp.F.UPF
     MD5 check sum: cc6de2960df11db49a60e589f9ebb39b
     Pseudo is Ultrasoft + core correction, Zval =  3.0
     Generated by new atomic code, or converted to UPF format
     Using radial grid of  781 points,  4 beta functions with:
                l(1) =   0
                l(2) =   0
                l(3) =   1
                l(4) =   1
     Q(r) pseudized with  8 coefficients,  rinner =    1.100   1.100   1.100

     PseudoPot. # 2 for H  read from file:
     /home/modeler/qe_pseudo/H.pbe-rrkjus_psl.1.0.0.UPF
     MD5 check sum: f52b6d4d1c606e5624b1dc7b2218f220
     Pseudo is Ultrasoft, Zval =  1.0
     Generated using "atomic" code by A. Dal Corso v.5.1
     Using radial grid of  929 points,  2 beta functions with:
                l(1) =   0
                l(2) =   0
     Q(r) pseudized with 0 coefficients

     PseudoPot. # 3 for N  read from file:
     /home/modeler/qe_pseudo/N.pbe-n-radius_5.UPF
     MD5 check sum: 16739722b17309cd8fe442a2ace49922
     Pseudo is Ultrasoft + core correction, Zval =  5.0
     Generated using "atomic" code by A. Dal Corso v.5.1
     Using radial grid of 1085 points,  4 beta functions with:
                l(1) =   0
                l(2) =   0
                l(3) =   1
                l(4) =   1
     Q(r) pseudized with 0 coefficients

     PseudoPot. # 4 for Na read from file:
     /home/modeler/qe_pseudo/na_pbe_v1.5.uspp.F.UPF
     MD5 check sum: 44600605ef58000f06b90626533354dc
     Pseudo is Ultrasoft, Zval =  9.0
     Generated by new atomic code, or converted to UPF format
     Using radial grid of  819 points,  5 beta functions with:
                l(1) =   0
                l(2) =   0
                l(3) =   1
                l(4) =   1
                l(5) =   2
     Q(r) pseudized with  8 coefficients,  rinner =    1.250   1.250   1.250
                                                       1.250   1.250

     atomic species   valence    mass     pseudopotential
        B              3.00    10.81000     B ( 1.00)
        H              1.00     1.00800     H ( 1.00)
        N              5.00    14.00700     N ( 1.00)
        Na             9.00    22.98977     Na( 1.00)

     No symmetry found

   Cartesian axes

     site n.     atom                  positions (alat units)
         1           Na  tau(   1) = (   0.5000000   0.0000000   0.5000000  )
         2           Na  tau(   2) = (   0.0000000   0.5000000   0.5000000  )
         3           N   tau(   3) = (   0.5000000   0.5000000   0.5000000  )
         4           H   tau(   4) = (   0.6965851   0.5000000   0.4304957  )
         5           H   tau(   5) = (   0.4017064   0.6702489   0.4304957  )
         6           B   tau(   6) = (   0.0000000   0.0000000   0.0000000  )
         7           H   tau(   7) = (   0.2347000   0.0000000  -0.0829787  )
         8           H   tau(   8) = (  -0.1173489   0.2032553  -0.0829787  )
         9           H   tau(   9) = (  -0.1173489  -0.2032553  -0.0829787  )
        10           H   tau(  10) = (   0.0000000   0.0000000   0.2489362  )

     number of k points=     8  Methfessel-Paxton smearing, width (Ry)=  0.0200
                       cart. coord. in units 2pi/alat
        k(    1) = (   0.0000000   0.0000000   0.0000000), wk =   0.2500000
        k(    2) = (   0.0000000   0.0000000  -0.5000000), wk =   0.2500000
        k(    3) = (   0.0000000  -0.5000000  -0.5000000), wk =   0.2500000
        k(    4) = (  -0.5000000  -0.5000000  -0.5000000), wk =   0.2500000
        k(    5) = (  -0.5000000   0.0000000   0.0000000), wk =   0.2500000
        k(    6) = (   0.0000000  -0.5000000   0.0000000), wk =   0.2500000
        k(    7) = (  -0.5000000   0.0000000   0.5000000), wk =   0.2500000
        k(    8) = (  -0.5000000   0.5000000   0.0000000), wk =   0.2500000

     Check: negative core charge=   -0.000003

     Initial potential from superposition of free atoms

     starting charge   31.98707, renormalised to   32.00000
     Starting wfcs are   24 randomized atomic wfcs

     Self-consistent Calculation

     iteration #  1     ecut=    25.00 Ry     beta= 0.50
     Davidson diagonalization with overlap
     ethr =  1.00E-02,  avg # of iterations =  3.5

     total energy              =    -223.72151234 Ry
     Harris-Foulkes estimate   =    -224.63490909 Ry
     estimated scf accuracy    <       1.60382472 Ry

[...]

     End of self-consistent calculation

          k = 0.0000 0.0000 0.0000 (  1419 PWs)   bands (ev):

   -51.5734 -50.8403 -23.5731 -23.3534 -23.2812 -22.7493 -22.6346 -22.5796
   -14.9321  -7.4800  -6.2819  -2.3902  -1.9087  -1.6887  -1.0882   0.6151
     3.8438   5.8048   6.2035   8.3645

[...]

          k =-0.5000-0.5000-0.5000 (  1472 PWs)   bands (ev):

[...]

     the Fermi energy is     0.7496 ev

!    total energy              =    -224.08389336 Ry
     Harris-Foulkes estimate   =    -224.08389326 Ry
     estimated scf accuracy    <       0.00000002 Ry

     The total energy is the sum of the following terms:

     one-electron contribution =    -196.13627813 Ry
     hartree contribution      =     104.11695372 Ry
     xc contribution           =     -41.72489919 Ry
     ewald contribution        =     -90.34088232 Ry
     smearing contrib. (-TS)   =       0.00121256 Ry

     convergence has been achieved in   8 iterations

     Forces acting on atoms (cartesian axes, Ry/au):

     atom    1 type  4   force =     0.01878173    0.08041827    0.02069099
     atom    2 type  4   force =     0.12927656   -0.01284195    0.04029935
     atom    3 type  3   force =    -0.04740815   -0.08806192    0.07919410
     atom    4 type  2   force =    -0.06833198    0.01575688   -0.08048339
     atom    5 type  2   force =    -0.03307827    0.00810666   -0.06844363
     atom    6 type  1   force =     0.00606142   -0.00302314   -0.02726495
     atom    7 type  2   force =     0.05105222   -0.00010765   -0.00985294
     atom    8 type  2   force =    -0.02783195    0.04558237   -0.01272049
     atom    9 type  2   force =    -0.02854029   -0.04531123   -0.01336904
     atom   10 type  2   force =     0.00001872   -0.00051829    0.07194999

     Total force =     0.272017     Total SCF correction =     0.000115

     Computing stress (Cartesian axis) and pressure

          total   stress  (Ry/bohr**3)                   (kbar)     P= -135.83
  -0.00050922   0.00014016   0.00008618        -74.91     20.62     12.68
   0.00014016  -0.00080923  -0.00000166         20.62   -119.04     -0.24
   0.00008618  -0.00000166  -0.00145152         12.68     -0.24   -213.53

     BFGS Geometry Optimization

     number of scf cycles    =   1
     number of bfgs steps    =   0

     enthalpy new            =    -224.0838933606 Ry

     new trust radius        =       0.1924429807 bohr
     new conv_thr            =       0.0000001000 Ry

     new unit-cell volume =    653.11459 a.u.^3 (    96.78160 Ang^3 )
     density =      1.31847 g/cm^3

CELL_PARAMETERS (angstrom)
   4.640167042   0.016468717   0.010125864
   0.016468717   4.604915391  -0.000195327
   0.010125864  -0.000195327   4.529446554

ATOMIC_POSITIONS (angstrom)
Na       2.335131491   0.049865653   2.280357727
Na       0.080858740   2.295940668   2.285324922
N        2.308539872   2.264847146   2.310023402
H        3.209102814   2.321890034   1.915740609
H        1.862037569   3.097114389   1.918901780
B        0.003130042  -0.001555576  -0.013897450
H        1.114867294   0.003920481  -0.378437693
H       -0.556482067   0.957639006  -0.383595509
H       -0.563716115  -0.961435138  -0.383845663
H        0.002611539  -0.000318892   1.164235769

     NEW-OLD atomic charge density approx. for the potential

     Check: negative core charge=   -0.000002
     extrapolated charge   29.67276, renormalised to   32.00000

[...]

     enthalpy old            =    -224.0838933606 Ry
     enthalpy new            =    -224.1846514679 Ry

     CASE: enthalpy_new < enthalpy_old

[...]

     Threshold (ethr) on eigenvalues was too large:
     Diagonalizing with lowered threshold

     Davidson diagonalization with overlap
     ethr =  6.04E-08,  avg # of iterations =  1.0

[...]

     Self-consistent Calculation

[...]

     Threshold (ethr) on eigenvalues was too large:
     Diagonalizing with lowered threshold

     Davidson diagonalization with overlap
     ethr =  1.90E-08,  avg # of iterations =  1.6

[...]

     total energy              =    -224.40281542 Ry
     Harris-Foulkes estimate   =    -224.40281545 Ry
     estimated scf accuracy    <       0.00000005 Ry

     iteration #  6     ecut=    25.00 Ry     beta= 0.50
     Davidson diagonalization with overlap
     ethr =  1.69E-10,  avg # of iterations =  2.0

     End of self-consistent calculation

[...]

          k = 0.0081-0.5306 0.0027 (  1462 PWs)   bands (ev):

[...]

          k =-0.5521 0.5395-0.0213 (  1492 PWs)   bands (ev):

   -48.3208 -48.0424 -20.3144 -20.2631 -20.2217 -20.0220 -19.9928 -19.8827
   -12.0005  -6.0649  -3.9269  -1.9089  -0.5458  -0.4279   0.3674   2.4689
     6.6687   7.7751  10.3797  11.0903

     the Fermi energy is     4.1550 ev

!    total energy              =    -224.40281543 Ry
     Harris-Foulkes estimate   =    -224.40281543 Ry
     estimated scf accuracy    <          3.3E-10 Ry

     The total energy is the sum of the following terms:

     one-electron contribution =    -163.37242387 Ry
     hartree contribution      =      90.55168515 Ry
     xc contribution           =     -41.77393332 Ry
     ewald contribution        =    -109.80814339 Ry
     smearing contrib. (-TS)   =       0.00000000 Ry

     convergence has been achieved in   6 iterations

     Forces acting on atoms (cartesian axes, Ry/au):

     atom    1 type  4   force =    -0.00010824   -0.00000862   -0.00021047
     atom    2 type  4   force =    -0.00050029   -0.00031658   -0.00024102
     atom    3 type  3   force =     0.00080786   -0.00002889   -0.00044860
     atom    4 type  2   force =    -0.00019180   -0.00002106    0.00034214
     atom    5 type  2   force =    -0.00022611    0.00057587   -0.00018290
     atom    6 type  1   force =     0.00017808   -0.00017361    0.00002307
     atom    7 type  2   force =     0.00011566    0.00005375    0.00031469
     atom    8 type  2   force =     0.00031904   -0.00002091   -0.00006700
     atom    9 type  2   force =    -0.00031043    0.00009208    0.00023305
     atom   10 type  2   force =    -0.00008377   -0.00015203    0.00023705

     Total force =     0.001556     Total SCF correction =     0.000012

     Computing stress (Cartesian axis) and pressure

          total   stress  (Ry/bohr**3)                   (kbar)     P=   -0.35
  -0.00000035   0.00000075   0.00000424         -0.05      0.11      0.62
   0.00000075  -0.00000392  -0.00000023          0.11     -0.58     -0.03
   0.00000424  -0.00000023  -0.00000295          0.62     -0.03     -0.43

     number of scf cycles    =  50
     number of bfgs steps    =  49

     enthalpy old            =    -224.4028114291 Ry
     enthalpy new            =    -224.4028154299 Ry

     CASE: enthalpy_new < enthalpy_old

     new trust radius        =       0.0041601447 bohr
     new conv_thr            =       0.0000000010 Ry

     new unit-cell volume =    536.56035 a.u.^3 (    79.51004 Ang^3 )
     density =      1.60487 g/cm^3

CELL_PARAMETERS (angstrom)
   4.325199939   0.064686593  -0.127337173
   0.071390375   4.429954029   0.028242632
  -0.140528465   0.019613305   4.154985085

ATOMIC_POSITIONS (angstrom)
Na       2.287693187   0.118479557   2.223873283
Na       0.126266155   2.302452064   2.610427732
N        2.177422414   2.340089543   1.609427022
H        2.791658178   1.894258226   0.909980651
H        1.586837022   2.855421231   0.937307902
B       -0.002127017   0.050662897   0.244878644
H        1.108110027   0.077054367  -0.236510738
H       -0.664951296   0.990285950  -0.139625958
H       -0.609179425  -0.964593720  -0.007842135
H        0.096958556   0.132031215   1.452070786

     NEW-OLD atomic charge density approx. for the potential

     Check: negative core charge=   -0.000001
     extrapolated charge   32.00054, renormalised to   32.00000

     General routines

     Parallel routines

   This run was terminated on:   3:17: 2  14Dec2020

   JOB DONE.