     Program PWSCF v.6.4.1 starts on 14Dec2020 at  4: 1:48

     Waiting for input...
     Reading input from standard input

     Current dimensions of program PWSCF are:
     Max number of different atomic species (ntypx) = 10
     Max number of k-points (npk) =  40000
     Max angular momentum in pseudopotentials (lmaxx) =  3

     Subspace diagonalization in iterative solution of the eigenvalue problem:
     a serial algorithm will be used

     bravais-lattice index     =            0
     lattice parameter (alat)  =       8.8817  a.u.
     unit-cell volume          =     700.6323 (a.u.)^3
     number of atoms/cell      =           10
     number of atomic types    =            4
     number of electrons       =        32.00
     number of Kohn-Sham states=           20
     kinetic-energy cutoff     =      25.0000  Ry
     charge density cutoff     =     200.0000  Ry
     convergence threshold     =      1.0E-07
     mixing beta               =       0.5000
     number of iterations used =            8  plain     mixing
     Exchange-correlation      =  SLA  PW   PBX  PBC ( 1  4  3  4 0 0)
     nstep                     =           50

     celldm(1)=   8.881713  celldm(2)=   0.000000  celldm(3)=   0.000000
     celldm(4)=   0.000000  celldm(5)=   0.000000  celldm(6)=   0.000000

     crystal axes: (cart. coord. in units of alat)
               a(1) = (   1.000000   0.000000   0.000000 )
               a(2) = (   0.000000   1.000000   0.000000 )
               a(3) = (   0.000000   0.000000   1.000000 )

     reciprocal axes: (cart. coord. in units 2 pi/alat)
               b(1) = (  1.000000  0.000000  0.000000 )
               b(2) = (  0.000000  1.000000  0.000000 )
               b(3) = (  0.000000  0.000000  1.000000 )

     PseudoPot. # 1 for B  read from file:
     /home/modeler/qe_pseudo/b_pbe_v1.4.uspp.F.UPF
     MD5 check sum: cc6de2960df11db49a60e589f9ebb39b
     Pseudo is Ultrasoft + core correction, Zval =  3.0
     Generated by new atomic code, or converted to UPF format
     Using radial grid of  781 points,  4 beta functions with:
                l(1) =   0
                l(2) =   0
                l(3) =   1
                l(4) =   1
     Q(r) pseudized with  8 coefficients,  rinner =    1.100   1.100   1.100

     PseudoPot. # 2 for H  read from file:
     /home/modeler/qe_pseudo/H.pbe-rrkjus_psl.1.0.0.UPF
     MD5 check sum: f52b6d4d1c606e5624b1dc7b2218f220
     Pseudo is Ultrasoft, Zval =  1.0
     Generated using "atomic" code by A. Dal Corso v.5.1
     Using radial grid of  929 points,  2 beta functions with:
                l(1) =   0
                l(2) =   0
     Q(r) pseudized with 0 coefficients

     PseudoPot. # 3 for N  read from file:
     /home/modeler/qe_pseudo/N.pbe-n-radius_5.UPF
     MD5 check sum: 16739722b17309cd8fe442a2ace49922
     Pseudo is Ultrasoft + core correction, Zval =  5.0
     Generated using "atomic" code by A. Dal Corso v.5.1
     Using radial grid of 1085 points,  4 beta functions with:
                l(1) =   0
                l(2) =   0
                l(3) =   1
                l(4) =   1
     Q(r) pseudized with 0 coefficients

     PseudoPot. # 4 for Na read from file:
     /home/modeler/qe_pseudo/na_pbe_v1.5.uspp.F.UPF
     MD5 check sum: 44600605ef58000f06b90626533354dc
     Pseudo is Ultrasoft, Zval =  9.0
     Generated by new atomic code, or converted to UPF format
     Using radial grid of  819 points,  5 beta functions with:
                l(1) =   0
                l(2) =   0
                l(3) =   1
                l(4) =   1
                l(5) =   2
     Q(r) pseudized with  8 coefficients,  rinner =    1.250   1.250   1.250
                                                       1.250   1.250

     atomic species   valence    mass     pseudopotential
        B              3.00    10.81000     B ( 1.00)
        H              1.00     1.00800     H ( 1.00)
        N              5.00    14.00700     N ( 1.00)
        Na             9.00    22.98977     Na( 1.00)

     No symmetry found

   Cartesian axes

     site n.     atom                  positions (alat units)
         1           Na  tau(   1) = (   0.5000000   0.0000000   0.5000000  )
         2           Na  tau(   2) = (   0.0000000   0.5000000   0.5000000  )
         3           N   tau(   3) = (   0.5000000   0.5000000   0.5000000  )
         4           H   tau(   4) = (   0.6965851   0.5000000   0.4304957  )
         5           H   tau(   5) = (   0.4017064   0.6702489   0.4304957  )
         6           B   tau(   6) = (   0.0000000   0.0000000   0.0000000  )
         7           H   tau(   7) = (   0.2347000   0.0000000  -0.0829787  )
         8           H   tau(   8) = (  -0.1173489   0.2032553  -0.0829787  )
         9           H   tau(   9) = (  -0.1173489  -0.2032553  -0.0829787  )
        10           H   tau(  10) = (   0.0000000   0.0000000   0.2489362  )

     number of k points=     8  Methfessel-Paxton smearing, width (Ry)=  0.0200
                       cart. coord. in units 2pi/alat
        k(    1) = (   0.0000000   0.0000000   0.0000000), wk =   0.2500000
        k(    2) = (   0.0000000   0.0000000  -0.5000000), wk =   0.2500000
        k(    3) = (   0.0000000  -0.5000000  -0.5000000), wk =   0.2500000
        k(    4) = (  -0.5000000  -0.5000000  -0.5000000), wk =   0.2500000
        k(    5) = (  -0.5000000   0.0000000   0.0000000), wk =   0.2500000
        k(    6) = (   0.0000000  -0.5000000   0.0000000), wk =   0.2500000
        k(    7) = (  -0.5000000   0.0000000   0.5000000), wk =   0.2500000
        k(    8) = (  -0.5000000   0.5000000   0.0000000), wk =   0.2500000

     Check: negative core charge=   -0.000003

     Initial potential from superposition of free atoms

     starting charge   31.98707, renormalised to   32.00000
     Starting wfcs are   24 randomized atomic wfcs

     Self-consistent Calculation

     iteration #  1     ecut=    25.00 Ry     beta= 0.50
     Davidson diagonalization with overlap
     ethr =  1.00E-02,  avg # of iterations =  3.5

     total energy              =    -223.72154798 Ry
     Harris-Foulkes estimate   =    -224.63490603 Ry
     estimated scf accuracy    <       1.60377113 Ry

[...]

     End of self-consistent calculation

          k = 0.0000 0.0000 0.0000 (  1419 PWs)   bands (ev):

   -51.5735 -50.8403 -23.5732 -23.3534 -23.2813 -22.7493 -22.6347 -22.5797
   -14.9320  -7.4800  -6.2818  -2.3902  -1.9087  -1.6887  -1.0882   0.6151
     3.8438   5.8048   6.2035   8.3646

[...]

          k =-0.5000-0.5000-0.5000 (  1472 PWs)   bands (ev):

[...]

     the Fermi energy is     0.7497 ev

!    total energy              =    -224.08389336 Ry
     Harris-Foulkes estimate   =    -224.08389326 Ry
     estimated scf accuracy    <       0.00000002 Ry

     The total energy is the sum of the following terms:

     one-electron contribution =    -196.13629003 Ry
     hartree contribution      =     104.11696660 Ry
     xc contribution           =     -41.72490017 Ry
     ewald contribution        =     -90.34088232 Ry
     smearing contrib. (-TS)   =       0.00121256 Ry

     convergence has been achieved in   8 iterations

     Forces acting on atoms (cartesian axes, Ry/au):

     atom    1 type  4   force =     0.01878398    0.08041942    0.02069460
     atom    2 type  4   force =     0.12927546   -0.01284278    0.04030062
     atom    3 type  3   force =    -0.04740949   -0.08806301    0.07919276
     atom    4 type  2   force =    -0.06833086    0.01575695   -0.08048498
     atom    5 type  2   force =    -0.03307940    0.00810821   -0.06844511
     atom    6 type  1   force =     0.00606083   -0.00302353   -0.02726727
     atom    7 type  2   force =     0.05104930   -0.00010784   -0.00985173
     atom    8 type  2   force =    -0.02783022    0.04557914   -0.01271978
     atom    9 type  2   force =    -0.02853793   -0.04530826   -0.01336757
     atom   10 type  2   force =     0.00001834   -0.00051830    0.07194847

     Total force =     0.217839     Total SCF correction =     0.000037

     Computing stress (Cartesian axis) and pressure

          total   stress  (Ry/bohr**3)                   (kbar)     P= -135.81
  -0.00050909   0.00014015   0.00008618        -74.89     20.62     12.68
   0.00014015  -0.00080911  -0.00000167         20.62   -119.02     -0.25
   0.00008618  -0.00000167  -0.00145143         12.68     -0.25   -213.51

     BFGS Geometry Optimization

     number of scf cycles    =   1
     number of bfgs steps    =   0

     enthalpy new            =    -224.0838933607 Ry

     new trust radius        =       0.1924306117 bohr
     new conv_thr            =       0.0000001000 Ry

     new unit-cell volume =    653.12025 a.u.^3 (    96.78243 Ang^3 )
     density =      1.31846 g/cm^3

CELL_PARAMETERS (angstrom)
   4.640182085   0.016467545   0.010125830
   0.016467545   4.604929160  -0.000196095
   0.010125830  -0.000196095   4.529457554

ATOMIC_POSITIONS (angstrom)
Na       2.325153958   0.008135725   2.269791692    0   0   0
Na       0.013296688   2.302366532   2.264630729    0   0   0
N        2.308546019   2.264852352   2.310027922
H        3.209113160   2.321895851   1.915744024
H        1.862042165   3.097123638   1.918905145
B        0.000000000   0.000000000   0.000000000    0   0   0
H        1.114869385   0.003920159  -0.378438013
H       -0.556483222   0.957640408  -0.383596232
H       -0.563716444  -0.961436255  -0.383845676
H        0.002611335  -0.000319092   1.164237819

     NEW-OLD atomic charge density approx. for the potential

     Check: negative core charge=   -0.000002
     extrapolated charge   29.67306, renormalised to   32.00000

[...]

     enthalpy old            =    -224.0838933607 Ry
     enthalpy new            =    -224.1648639566 Ry

     CASE: enthalpy_new < enthalpy_old

[...]

     iteration #  1     ecut=    25.00 Ry     beta= 0.50
     Davidson diagonalization with overlap
     c_bands:  1 eigenvalues not converged
     ethr =  1.00E-06,  avg # of iterations =  7.5

[...]

     Threshold (ethr) on eigenvalues was too large:
     Diagonalizing with lowered threshold

     Davidson diagonalization with overlap
     ethr =  8.61E-08,  avg # of iterations =  1.4

[...]

     Self-consistent Calculation

[...]

     Threshold (ethr) on eigenvalues was too large:
     Diagonalizing with lowered threshold

     Davidson diagonalization with overlap
     ethr =  5.22E-09,  avg # of iterations =  2.0

[...]

     total energy              =    -224.40157092 Ry
     Harris-Foulkes estimate   =    -224.40157092 Ry
     estimated scf accuracy    <          5.7E-09 Ry

     iteration #  6     ecut=    25.00 Ry     beta= 0.50
     Davidson diagonalization with overlap
     ethr =  1.77E-11,  avg # of iterations =  2.0

     End of self-consistent calculation

[...]

          k = 0.0068-0.5341 0.0001 (  1462 PWs)   bands (ev):

[...]

          k =-0.5435 0.5422-0.0166 (  1492 PWs)   bands (ev):

   -48.2184 -48.1707 -20.2596 -20.1658 -20.1591 -20.1164 -20.1049 -19.9678
   -11.9951  -6.0865  -3.9526  -1.9296  -0.4678  -0.4201   0.3767   2.5238
     6.8052   7.7238  10.5335  10.9345

     the Fermi energy is     4.2215 ev

!    total energy              =    -224.40157092 Ry
     Harris-Foulkes estimate   =    -224.40157092 Ry
     estimated scf accuracy    <          7.6E-11 Ry

     The total energy is the sum of the following terms:

     one-electron contribution =    -163.76050276 Ry
     hartree contribution      =      90.74072694 Ry
     xc contribution           =     -41.77468014 Ry
     ewald contribution        =    -109.60711495 Ry
     smearing contrib. (-TS)   =       0.00000000 Ry

     convergence has been achieved in   6 iterations

     Forces acting on atoms (cartesian axes, Ry/au):

     atom    1 type  4   force =     0.00560805   -0.00029808    0.00337818
     atom    2 type  4   force =    -0.00090723    0.00132186    0.00257467
     atom    3 type  3   force =     0.00045119    0.00010481    0.00020197
     atom    4 type  2   force =     0.00003021   -0.00019607   -0.00023458
     atom    5 type  2   force =     0.00003418    0.00030881    0.00001360
     atom    6 type  1   force =    -0.00571883   -0.00093041   -0.00597741
     atom    7 type  2   force =     0.00013396    0.00030880   -0.00024803
     atom    8 type  2   force =     0.00002395   -0.00031888    0.00002759
     atom    9 type  2   force =     0.00045206   -0.00020689    0.00032223
     atom   10 type  2   force =    -0.00010755   -0.00009393   -0.00005822

     Total force =     0.001048     Total SCF correction =     0.000006

     Computing stress (Cartesian axis) and pressure

          total   stress  (Ry/bohr**3)                   (kbar)     P=   -0.13
  -0.00000134   0.00000021   0.00000162         -0.20      0.03      0.24
   0.00000021   0.00000065   0.00000182          0.03      0.10      0.27
   0.00000162   0.00000182  -0.00000202          0.24      0.27     -0.30

     number of scf cycles    =  50
     number of bfgs steps    =  49

     enthalpy old            =    -224.4015688796 Ry
     enthalpy new            =    -224.4015709173 Ry

     CASE: enthalpy_new < enthalpy_old

     new trust radius        =       0.0036341305 bohr
     new conv_thr            =       0.0000000010 Ry

     new unit-cell volume =    536.80276 a.u.^3 (    79.54596 Ang^3 )
     density =      1.60415 g/cm^3

CELL_PARAMETERS (angstrom)
   4.381420580   0.055575440  -0.085954569
   0.066295472   4.400713833   0.022225508
  -0.127729288  -0.001064441   4.128830213

ATOMIC_POSITIONS (angstrom)
Na       2.126845646   0.027255500   2.021437822    0   0   0
Na      -0.030716908   2.199824696   2.075527861    0   0   0
N        2.110284350   2.235160446   1.278166977
H        2.657228411   1.691358084   0.592610032
H        1.588207029   2.792272903   0.583835092
B        0.000000000   0.000000000   0.000000000    0   0   0
H        1.161388732   0.031772517  -0.325051421
H       -0.584702037   0.976547059  -0.421391252
H       -0.576965713  -0.999650076  -0.373722808
H       -0.057832071   0.020226134   1.214530881

     NEW-OLD atomic charge density approx. for the potential

     Check: negative core charge=   -0.000001
     extrapolated charge   31.99500, renormalised to   32.00000

     General routines

     Parallel routines

   This run was terminated on:   4:22:19  14Dec2020

   JOB DONE.